========================================================== 
File name: C:\DEGR\assets\definitions\MSRCPSP_Gen\100_10_64_10_B.def
Creation date: Wed May 03 10:38:17 CEST 2023
Website: http://imopse.ii.pwr.edu.pl/ 
Reference: 
Myszkowski P. B., Skowronski M. E., Olech L., Oslizlo K., 
Hybrid Ant Colony Optimization in solving Multi-Skill Resource-Constrained Project Scheduling Problem, 
Soft Computing, DOI: DOI 10.1007/s00500-014-1455-x 
========================================================== 
General characteristics: 
Tasks: 100
Resources: 10
Precedence relations: 63
Number of skill types: 10
========================================================== 
ResourceID 	 Salary 	 Skills 
1	 	 	67.8	 	 Q3: 3 	  Q2: 2 	 
2	 	 	24.2	 	 Q5: 2 	 
3	 	 	27.8	 	 Q7: 2 	  Q4: 3 	  Q3: 1 	  Q6: 2 	  Q1: 2 	  Q5: 0 	  Q8: 3 	  Q2: 1 	 
4	 	 	49.6	 	 Q4: 1 	  Q3: 1 	  Q1: 0 	  Q2: 3 	  Q0: 0 	 
5	 	 	45.4	 	 Q8: 0 	 
6	 	 	72.4	 	 Q7: 0 	  Q2: 1 	  Q1: 1 	  Q4: 2 	  Q9: 3 	  Q6: 1 	  Q8: 2 	  Q3: 2 	 
7	 	 	25.4	 	 Q4: 0 	  Q6: 3 	  Q2: 1 	  Q8: 3 	  Q3: 0 	  Q0: 3 	  Q5: 0 	 
8	 	 	56.5	 	 Q4: 2 	  Q3: 1 	 
9	 	 	66.3	 	 Q1: 1 	 
10	 	 	52.8	 	 Q7: 3 	  Q8: 3 	  Q1: 3 	  Q5: 0 	  Q4: 2 	  Q6: 0 	  Q0: 0 	  Q2: 2 	 
========================================================== 
TaskID 	 Duration 	 Skill 	 Predecessor IDs 
1	31	Q6:	1
2	34	Q4:	1
3	25	Q7:	3
4	26	Q1:	1
5	18	Q8:	3
6	26	Q3:	2
7	12	Q9:	3	4
8	39	Q9:	3
9	37	Q6:	3
10	20	Q0:	0
11	33	Q9:	3	2
12	38	Q3:	0
13	39	Q6:	3
14	25	Q3:	3
15	26	Q8:	2
16	38	Q5:	2
17	22	Q3:	1
18	33	Q1:	2
19	14	Q0:	3	5
20	34	Q6:	0	5	6
21	35	Q4:	2
22	19	Q8:	0	17
23	31	Q7:	2
24	31	Q6:	0
25	9	Q8:	2
26	32	Q0:	3
27	39	Q2:	3	12
28	39	Q9:	3	10
29	23	Q0:	3	25
30	21	Q4:	1	4	18	22
31	34	Q5:	2
32	18	Q3:	3
33	30	Q3:	0
34	32	Q7:	0
35	19	Q8:	3
36	18	Q1:	0
37	33	Q3:	1
38	40	Q4:	3
39	35	Q4:	0
40	38	Q8:	2
41	9	Q5:	2	13
42	37	Q7:	2	22
43	13	Q0:	0
44	31	Q1:	2
45	33	Q7:	2	37	29
46	18	Q6:	0	35
47	22	Q2:	2	35
48	33	Q0:	0
49	20	Q4:	3
50	12	Q8:	2
51	12	Q4:	1	12
52	37	Q1:	2
53	14	Q7:	3
54	37	Q8:	3
55	33	Q4:	0	50
56	40	Q1:	0	47	11	19	9	17
57	15	Q4:	1	36
58	40	Q4:	3
59	33	Q3:	0
60	27	Q2:	2
61	32	Q0:	3
62	32	Q3:	2	60
63	26	Q7:	2	31	39	54
64	17	Q1:	0
65	32	Q8:	2	15	27	23
66	28	Q1:	3	42
67	39	Q6:	2
68	14	Q4:	0
69	21	Q4:	1
70	28	Q6:	2	25
71	20	Q3:	0	48	30
72	19	Q1:	3
73	24	Q5:	0
74	29	Q9:	3	8	34
75	36	Q2:	2	54
76	20	Q8:	0	60
77	33	Q7:	2
78	28	Q2:	2
79	16	Q4:	3	39	4
80	20	Q7:	2	37
81	28	Q6:	0	54	71
82	20	Q4:	1
83	38	Q1:	1	23	77
84	30	Q5:	2
85	23	Q1:	1
86	15	Q3:	1	52
87	35	Q2:	1	76	64
88	27	Q4:	1
89	12	Q4:	1	27
90	38	Q1:	3	78
91	37	Q4:	0	50
92	40	Q3:	2	41
93	36	Q0:	3	44	21
94	13	Q1:	3
95	32	Q6:	2	77	59
96	10	Q3:	1
97	12	Q8:	0	6
98	28	Q6:	0
99	29	Q2:	2
100	35	Q7:	2	1	64	13
========================================================== 